\ENCODING=ISO-8859-1
\Problem name: ilog.cplex

Minimize
 obj1: 100751 x1 + 94689 x2 + 97510 x3 + 106449 x4 + 90444 x5 + 96917 x6
       + 107916 x7 + 91478 x8 + 95508 x9 + 95051 x10 + 102680 x11 + 107370 x12
       + 99581 x13 + 104534 x14 + 106387 x15 + 99517 x16 + 90842 x17
       + 101586 x18 + 94392 x19 + 94804 x20 + 90975 x21 + 108534 x22
       + 107980 x23 + 105480 x24 + 109240 x25 + 105435 x26 + 103688 x27
       + 93643 x28 + 99202 x29 + 92196 x30 + 103289 x31 + 109886 x32
       + 95017 x33 + 91801 x34 + 95690 x35 + 103946 x36 + 99225 x37 + 92311 x38
       + 92272 x39 + 100010 x40 + 104632 x41 + 92982 x42 + 93216 x43
       + 94855 x44 + 99131 x45 + 108138 x46 + 103890 x47 + 93095 x48
       + 104214 x49 + 91385 x50 + 92258 x51 + 93957 x52 + 94142 x53
       + 106247 x54 + 107624 x55 + 100068 x56 + 94602 x57 + 105385 x58
       + 100920 x59 + 106887 x60 + 107114 x61 + 102371 x62 + 93755 x63
       + 101445 x64 + 103965 x65 + 95744 x66 + 106444 x67 + 92063 x68
       + 103378 x69 + 94247 x70 + 96737 x71 + 104102 x72 + 109067 x73
       + 92485 x74 + 99264 x75 + 90510 x76 + 96201 x77 + 109453 x78
       + 102207 x79 + 103636 x80 + 101203 x81 + 100862 x82 + 92190 x83
       + 92592 x84 + 95160 x85 + 94337 x86 + 93622 x87 + 93925 x88 + 93636 x89
       + 90303 x90 + 104466 x91 + 92422 x92 + 99254 x93 + 100817 x94
       + 106878 x95 + 103596 x96 + 107696 x97 + 103582 x98 + 108202 x99
       + 109704 x100 + 107156 x101 + 100228 x102 + 94726 x103 + 104760 x104
       + 94692 x105 + 91380 x106 + 92901 x107 + 106166 x108 + 108967 x109
       + 103704 x110 + 105106 x111 + 103667 x112 + 96985 x113 + 96294 x114
       + 100309 x115 + 90655 x116 + 103280 x117 + 95323 x118 + 92159 x119
       + 101640 x120 + 103851 x121 + 108656 x122 + 105238 x123 + 102592 x124
       + 98525 x125 + 96450 x126 + 90213 x127 + 104297 x128 + 98789 x129
       + 94639 x130 + 93440 x131 + 95774 x132 + 99069 x133 + 108689 x134
       + 107846 x135 + 98131 x136 + 96026 x137 + 106105 x138 + 108807 x139
       + 103133 x140 + 102635 x141 + 97951 x142 + 91247 x143 + 105330 x144
       + 91660 x145 + 91958 x146 + 92349 x147 + 101756 x148 + 96587 x149
       + 102819 x150 + 98862 x151 + 90700 x152 + 93990 x153 + 101297 x154
       + 108555 x155 + 90933 x156 + 101479 x157 + 105832 x158 + 105119 x159
       + 96151 x160 + 109708 x161 + 93771 x162 + 93068 x163 + 105918 x164
       + 93005 x165 + 108238 x166 + 96555 x167 + 105127 x168 + 99820 x169
       + 109769 x170 + 96178 x171 + 94025 x172 + 103837 x173 + 96805 x174
       + 98244 x175 + 107080 x176 + 96101 x177 + 107592 x178 + 108494 x179
       + 101524 x180 + 106883 x181 + 105785 x182 + 100880 x183 + 100747 x184
       + 97419 x185 + 101764 x186 + 101249 x187 + 97780 x188 + 93737 x189
       + 97004 x190 + 105643 x191 + 99727 x192 + 107434 x193 + 99792 x194
       + 103401 x195 + 105275 x196 + 101581 x197 + 107178 x198 + 96383 x199
       + 94323 x200 + 91262 x201 + 103563 x202 + 97508 x203 + 92941 x204
       + 101615 x205 + 104339 x206 + 95201 x207 + 109585 x208 + 95492 x209
       + 100218 x210 + 91235 x211 + 104447 x212 + 100708 x213 + 99066 x214
       + 105686 x215 + 97576 x216 + 93468 x217 + 94512 x218 + 109870 x219
       + 106419 x220 + 95103 x221 + 105150 x222 + 102627 x223 + 99285 x224
       + 99683 x225 + 98092 x226 + 103805 x227 + 90481 x228 + 109163 x229
       + 102880 x230 + 92195 x231 + 96567 x232 + 100290 x233 + 101312 x234
       + 97998 x235 + 100551 x236 + 90606 x237 + 98921 x238 + 108337 x239
       + 108833 x240 + 109665 x241 + 104625 x242 + 98444 x243 + 94305 x244
       + 95994 x245 + 106533 x246 + 100838 x247 + 98279 x248 + 90304 x249
       + 93897 x250 + 97897 x251 + 92097 x252 + 93017 x253 + 100518 x254
       + 107258 x255 + 102178 x256 + 93754 x257 + 103525 x258 + 98607 x259
       + 100817 x260 + 99438 x261 + 99378 x262 + 106024 x263 + 100879 x264
       + 102315 x265 + 108293 x266 + 99438 x267 + 95810 x268 + 100133 x269
       + 103355 x270 + 107304 x271 + 96330 x272 + 91466 x273 + 95399 x274
       + 105429 x275 + 108127 x276 + 98696 x277 + 94120 x278 + 100853 x279
       + 93356 x280 + 102569 x281 + 109259 x282 + 107396 x283 + 94715 x284
       + 97749 x285 + 101942 x286 + 97748 x287 + 102444 x288 + 94888 x289
       + 98198 x290 + 105927 x291 + 91795 x292 + 101499 x293 + 94151 x294
       + 103477 x295 + 91374 x296 + 91226 x297 + 95558 x298 + 102948 x299
       + 101178 x300 + 103267 x301 + 99481 x302 + 99404 x303 + 100940 x304
       + 97707 x305 + 90652 x306 + 93199 x307 + 90406 x308 + 91730 x309
       + 93938 x310 + 92815 x311 + 94877 x312 + 91048 x313 + 100622 x314
       + 91079 x315 + 100631 x316 + 108826 x317 + 105122 x318 + 91678 x319
       + 106975 x320 + 100009 x321 + 92591 x322 + 109027 x323 + 106000 x324
       + 106560 x325 + 92053 x326 + 91974 x327 + 99312 x328 + 102607 x329
       + 99087 x330 + 95442 x331 + 104983 x332 + 97574 x333 + 95716 x334
       + 93474 x335 + 104421 x336 + 90086 x337 + 109356 x338 + 92194 x339
       + 95862 x340 + 105781 x341 + 97582 x342 + 101826 x343 + 98913 x344
       + 98080 x345 + 100917 x346 + 103190 x347 + 92838 x348 + 102612 x349
       + 92011 x350 + 106266 x351 + 103631 x352 + 107177 x353 + 109603 x354
       + 106358 x355 + 92858 x356 + 91521 x357 + 97739 x358 + 91090 x359
       + 104404 x360 + 90958 x361 + 93003 x362 + 107612 x363 + 106359 x364
       + 104974 x365 + 102246 x366 + 105297 x367 + 91061 x368 + 106010 x369
       + 101126 x370 + 99406 x371 + 102436 x372 + 98250 x373 + 96575 x374
       + 93198 x375 + 101848 x376 + 105616 x377 + 100142 x378 + 98203 x379
       + 97404 x380 + 104538 x381 + 100217 x382 + 94170 x383 + 94230 x384
       + 101555 x385 + 109005 x386 + 102516 x387 + 91317 x388 + 101035 x389
       + 93553 x390 + 90128 x391 + 94365 x392 + 94069 x393 + 99228 x394
       + 93964 x395 + 93399 x396 + 106029 x397 + 98751 x398 + 101132 x399
       + 108982 x400 + 101482 x401 + 99640 x402 + 103442 x403 + 95455 x404
       + 104116 x405 + 97987 x406 + 95796 x407 + 105204 x408 + 102402 x409
       + 98310 x410 + 105371 x411 + 105448 x412 + 100153 x413 + 109349 x414
       + 102834 x415 + 90736 x416 + 105305 x417 + 98108 x418 + 101228 x419
       + 105524 x420 + 97636 x421 + 108834 x422 + 107335 x423 + 91184 x424
       + 104819 x425 + 106927 x426 + 107864 x427 + 93589 x428 + 93292 x429
       + 91205 x430 + 99031 x431 + 102221 x432 + 96045 x433 + 90673 x434
       + 109097 x435 + 102251 x436 + 90722 x437 + 95204 x438 + 109984 x439
       + 102150 x440 + 108312 x441 + 103489 x442 + 106303 x443 + 91132 x444
       + 95219 x445 + 106153 x446 + 107967 x447 + 103080 x448 + 109668 x449
       + 97123 x450 + 102106 x451 + 100305 x452 + 104572 x453 + 99034 x454
       + 109506 x455 + 102658 x456 + 100355 x457 + 93401 x458 + 106114 x459
       + 98902 x460 + 93589 x461 + 108000 x462 + 97611 x463 + 99825 x464
       + 102864 x465 + 101234 x466 + 92207 x467 + 102134 x468 + 99574 x469
       + 99194 x470 + 104686 x471 + 97973 x472 + 93539 x473 + 104163 x474
       + 97644 x475 + 94324 x476 + 98480 x477 + 93199 x478 + 96926 x479
       + 102058 x480 + 93409 x481 + 94161 x482 + 99027 x483 + 108508 x484
       + 104586 x485 + 100948 x486 + 109674 x487 + 107131 x488 + 91973 x489
       + 99725 x490 + 94855 x491 + 103169 x492 + 93931 x493 + 103569 x494
       + 108216 x495 + 105147 x496 + 104435 x497 + 94235 x498 + 102083 x499
       + 175376 x500 + 422808 x501 + 375055 x502 + 370373 x503 + 420170 x504
       + 398181 x505 + 402330 x506 + 382193 x507 + 401835 x508 + 384127 x509
       + 362132 x510 + 373791 x511 + 438452 x512 + 364966 x513 + 375572 x514
       + 404489 x515 + 438967 x516 + 371698 x517 + 409304 x518 + 389012 x519
       + 362790 x520 + 409327 x521 + 433945 x522 + 430809 x523 + 381014 x524
       + 377226 x525 + 389467 x526 + 438493 x527 + 371534 x528 + 361633 x529
       + 378972 x530 + 390793 x531 + 425451 x532 + 433827 x533 + 391007 x534
       + 383574 x535 + 384652 x536 + 369464 x537 + 436992 x538 + 408243 x539
       + 400600 x540 + 394039 x541 + 364094 x542 + 393996 x543 + 421917 x544
       + 396365 x545 + 405242 x546 + 437125 x547 + 383407 x548 + 396425 x549
       + 562122 x550
Subject To
 c1:   x16 + x30 - x31 - x35 - x48  = 0
 c2:   x66 + x80 - x81 - x85 - x98  = 0
 c3:   x116 + x130 - x131 - x135 - x148  = 0
 c4:   x166 + x180 - x181 - x185 - x198  = 0
 c5:   x216 + x230 - x231 - x235 - x248  = 0
 c6:   x266 + x280 - x281 - x285 - x298  = 0
 c7:   x316 + x330 - x331 - x335 - x348  = 0
 c8:   x366 + x380 - x381 - x385 - x398  = 1
 c9:   x416 + x430 - x431 - x435 - x448  = 1
 c10:  x466 + x480 - x481 - x485 - x498  = 0
 c11:  x3 - x8 - x11 + x26 - x41 + x42  = 0
 c12:  x53 - x58 - x61 + x76 - x91 + x92  = 0
 c13:  x103 - x108 - x111 + x126 - x141 + x142  = 0
 c14:  x153 - x158 - x161 + x176 - x191 + x192  = 0
 c15:  x203 - x208 - x211 + x226 - x241 + x242  = 0
 c16:  x253 - x258 - x261 + x276 - x291 + x292  = 0
 c17:  x303 - x308 - x311 + x326 - x341 + x342  = 0
 c18:  x353 - x358 - x361 + x376 - x391 + x392  = 0
 c19:  x403 - x408 - x411 + x426 - x441 + x442  = 0
 c20:  x453 - x458 - x461 + x476 - x491 + x492  = 0
 c21:  x6 + x14 - x18 + x31 + x36 + x39 - x43 + x47  = 0
 c22:  x56 + x64 - x68 + x81 + x86 + x89 - x93 + x97  = 0
 c23:  x106 + x114 - x118 + x131 + x136 + x139 - x143 + x147  = 0
 c24:  x156 + x164 - x168 + x181 + x186 + x189 - x193 + x197  = 0
 c25:  x206 + x214 - x218 + x231 + x236 + x239 - x243 + x247  = 0
 c26:  x256 + x264 - x268 + x281 + x286 + x289 - x293 + x297  = 1
 c27:  x306 + x314 - x318 + x331 + x336 + x339 - x343 + x347  = -1
 c28:  x356 + x364 - x368 + x381 + x386 + x389 - x393 + x397  = -1
 c29:  x406 + x414 - x418 + x431 + x436 + x439 - x443 + x447  = 0
 c30:  x456 + x464 - x468 + x481 + x486 + x489 - x493 + x497  = 0
 c31:  x1 - x17 + x21 + x32 + x35 + x40 + x46  = 0
 c32:  x51 - x67 + x71 + x82 + x85 + x90 + x96  = 0
 c33:  x101 - x117 + x121 + x132 + x135 + x140 + x146  = 0
 c34:  x151 - x167 + x171 + x182 + x185 + x190 + x196  = 0
 c35:  x201 - x217 + x221 + x232 + x235 + x240 + x246  = 0
 c36:  x251 - x267 + x271 + x282 + x285 + x290 + x296  = 0
 c37:  x301 - x317 + x321 + x332 + x335 + x340 + x346  = 0
 c38:  x351 - x367 + x371 + x382 + x385 + x390 + x396  = 0
 c39:  x401 - x417 + x421 + x432 + x435 + x440 + x446  = -1
 c40:  x451 - x467 + x471 + x482 + x485 + x490 + x496  = 0
 c41:  x7 - x24 - x25 - x34 + x38 - x40 + x50  = 0
 c42:  x57 - x74 - x75 - x84 + x88 - x90 + x100  = -1
 c43:  x107 - x124 - x125 - x134 + x138 - x140 + x150  = 0
 c44:  x157 - x174 - x175 - x184 + x188 - x190 + x200  = 0
 c45:  x207 - x224 - x225 - x234 + x238 - x240 + x250  = 0
 c46:  x257 - x274 - x275 - x284 + x288 - x290 + x300  = 0
 c47:  x307 - x324 - x325 - x334 + x338 - x340 + x350  = 0
 c48:  x357 - x374 - x375 - x384 + x388 - x390 + x400  = 0
 c49:  x407 - x424 - x425 - x434 + x438 - x440 + x450  = 0
 c50:  x457 - x474 - x475 - x484 + x488 - x490 + x500  = 1
 c51:  - x12 - x14 - x15 - x21 - x23 - x38 - x42 - x45  = 0
 c52:  - x62 - x64 - x65 - x71 - x73 - x88 - x92 - x95  = 0
 c53:  - x112 - x114 - x115 - x121 - x123 - x138 - x142 - x145  = 0
 c54:  - x162 - x164 - x165 - x171 - x173 - x188 - x192 - x195  = -1
 c55:  - x212 - x214 - x215 - x221 - x223 - x238 - x242 - x245  = -1
 c56:  - x262 - x264 - x265 - x271 - x273 - x288 - x292 - x295  = 0
 c57:  - x312 - x314 - x315 - x321 - x323 - x338 - x342 - x345  = 0
 c58:  - x362 - x364 - x365 - x371 - x373 - x388 - x392 - x395  = 0
 c59:  - x412 - x414 - x415 - x421 - x423 - x438 - x442 - x445  = 0
 c60:  - x462 - x464 - x465 - x471 - x473 - x488 - x492 - x495  = 0
 c61:  x4 - x5 - x9 + x12 - x20 - x26 - x30 + x48  = 0
 c62:  x54 - x55 - x59 + x62 - x70 - x76 - x80 + x98  = 0
 c63:  x104 - x105 - x109 + x112 - x120 - x126 - x130 + x148  = 0
 c64:  x154 - x155 - x159 + x162 - x170 - x176 - x180 + x198  = 1
 c65:  x204 - x205 - x209 + x212 - x220 - x226 - x230 + x248  = 0
 c66:  x254 - x255 - x259 + x262 - x270 - x276 - x280 + x298  = 0
 c67:  x304 - x305 - x309 + x312 - x320 - x326 - x330 + x348  = 0
 c68:  x354 - x355 - x359 + x362 - x370 - x376 - x380 + x398  = 0
 c69:  x404 - x405 - x409 + x412 - x420 - x426 - x430 + x448  = 0
 c70:  x454 - x455 - x459 + x462 - x470 - x476 - x480 + x498  = 0
 c71:  x2 - x4 - x10 + x19 + x33 + x34 + x41  = 0
 c72:  x52 - x54 - x60 + x69 + x83 + x84 + x91  = 1
 c73:  x102 - x104 - x110 + x119 + x133 + x134 + x141  = 0
 c74:  x152 - x154 - x160 + x169 + x183 + x184 + x191  = 0
 c75:  x202 - x204 - x210 + x219 + x233 + x234 + x241  = 1
 c76:  x252 - x254 - x260 + x269 + x283 + x284 + x291  = 0
 c77:  x302 - x304 - x310 + x319 + x333 + x334 + x341  = 0
 c78:  x352 - x354 - x360 + x369 + x383 + x384 + x391  = 0
 c79:  x402 - x404 - x410 + x419 + x433 + x434 + x441  = 0
 c80:  x452 - x454 - x460 + x469 + x483 + x484 + x491  = 0
 c81:  - x7 + x13 - x27 - x37 - x46 - x47  = 0
 c82:  - x57 + x63 - x77 - x87 - x96 - x97  = 0
 c83:  - x107 + x113 - x127 - x137 - x146 - x147  = 0
 c84:  - x157 + x163 - x177 - x187 - x196 - x197  = 0
 c85:  - x207 + x213 - x227 - x237 - x246 - x247  = 0
 c86:  - x257 + x263 - x277 - x287 - x296 - x297  = -1
 c87:  - x307 + x313 - x327 - x337 - x346 - x347  = 0
 c88:  - x357 + x363 - x377 - x387 - x396 - x397  = 0
 c89:  - x407 + x413 - x427 - x437 - x446 - x447  = 0
 c90:  - x457 + x463 - x477 - x487 - x496 - x497  = 0
 c91:  - x6 - x13 + x22 - x29 + x43 + x44 + x45  = 0
 c92:  - x56 - x63 + x72 - x79 + x93 + x94 + x95  = 0
 c93:  - x106 - x113 + x122 - x129 + x143 + x144 + x145  = 0
 c94:  - x156 - x163 + x172 - x179 + x193 + x194 + x195  = 0
 c95:  - x206 - x213 + x222 - x229 + x243 + x244 + x245  = 0
 c96:  - x256 - x263 + x272 - x279 + x293 + x294 + x295  = 0
 c97:  - x306 - x313 + x322 - x329 + x343 + x344 + x345  = 1
 c98:  - x356 - x363 + x372 - x379 + x393 + x394 + x395  = 0
 c99:  - x406 - x413 + x422 - x429 + x443 + x444 + x445  = 0
 c100: - x456 - x463 + x472 - x479 + x493 + x494 + x495  = 0
 c101: - x19 + x20 - x39  = 0
 c102: - x69 + x70 - x89  = 0
 c103: - x119 + x120 - x139  = 0
 c104: - x169 + x170 - x189  = 0
 c105: - x219 + x220 - x239  = 0
 c106: - x269 + x270 - x289  = 0
 c107: - x319 + x320 - x339  = 0
 c108: - x369 + x370 - x389  = 0
 c109: - x419 + x420 - x439  = 0
 c110: - x469 + x470 - x489  = 0
 c111: x5 + x10 + x17 - x22 + x24 - x28 - x32 - x33 - x36 - x49  = -1
 c112: x55 + x60 + x67 - x72 + x74 - x78 - x82 - x83 - x86 - x99  = 0
 c113: x105 + x110 + x117 - x122 + x124 - x128 - x132 - x133 - x136 - x149
        = -1
 c114: x155 + x160 + x167 - x172 + x174 - x178 - x182 - x183 - x186 - x199  = 0
 c115: x205 + x210 + x217 - x222 + x224 - x228 - x232 - x233 - x236 - x249  = 0
 c116: x255 + x260 + x267 - x272 + x274 - x278 - x282 - x283 - x286 - x299  = 0
 c117: x305 + x310 + x317 - x322 + x324 - x328 - x332 - x333 - x336 - x349  = 0
 c118: x355 + x360 + x367 - x372 + x374 - x378 - x382 - x383 - x386 - x399  = 0
 c119: x405 + x410 + x417 - x422 + x424 - x428 - x432 - x433 - x436 - x449  = 0
 c120: x455 + x460 + x467 - x472 + x474 - x478 - x482 - x483 - x486 - x499  = 0
 c121: - x1 - x2 - x3 + x9 + x11 - x16 + x49  = 0
 c122: - x51 - x52 - x53 + x59 + x61 - x66 + x99  = 0
 c123: - x101 - x102 - x103 + x109 + x111 - x116 + x149  = 0
 c124: - x151 - x152 - x153 + x159 + x161 - x166 + x199  = 0
 c125: - x201 - x202 - x203 + x209 + x211 - x216 + x249  = 0
 c126: - x251 - x252 - x253 + x259 + x261 - x266 + x299  = 0
 c127: - x301 - x302 - x303 + x309 + x311 - x316 + x349  = 0
 c128: - x351 - x352 - x353 + x359 + x361 - x366 + x399  = 0
 c129: - x401 - x402 - x403 + x409 + x411 - x416 + x449  = 0
 c130: - x451 - x452 - x453 + x459 + x461 - x466 + x499  = -1
 c131: x18 + x23 + x25 + x28 + x37 - x44  = 0
 c132: x68 + x73 + x75 + x78 + x87 - x94  = 0
 c133: x118 + x123 + x125 + x128 + x137 - x144  = 0
 c134: x168 + x173 + x175 + x178 + x187 - x194  = 0
 c135: x218 + x223 + x225 + x228 + x237 - x244  = 0
 c136: x268 + x273 + x275 + x278 + x287 - x294  = 0
 c137: x318 + x323 + x325 + x328 + x337 - x344  = 0
 c138: x368 + x373 + x375 + x378 + x387 - x394  = 0
 c139: x418 + x423 + x425 + x428 + x437 - x444  = 0
 c140: x468 + x473 + x475 + x478 + x487 - x494  = 0
 c141: x8 + x15 + x27 + x29 - x50  = 1
 c142: x58 + x65 + x77 + x79 - x100  = 0
 c143: x108 + x115 + x127 + x129 - x150  = 1
 c144: x158 + x165 + x177 + x179 - x200  = 0
 c145: x208 + x215 + x227 + x229 - x250  = 0
 c146: x258 + x265 + x277 + x279 - x300  = 0
 c147: x308 + x315 + x327 + x329 - x350  = 0
 c148: x358 + x365 + x377 + x379 - x400  = 0
 c149: x408 + x415 + x427 + x429 - x450  = 0
 c150: x458 + x465 + x477 + x479 - x500  = 0
 c151: 4 x1 + 4 x51 + 4 x101 + 4 x151 + 4 x201 + 4 x251 + 4 x301 + 4 x351
       + 4 x401 + 4 x451 - 20 x501 <= 0
 c152: 4 x2 + 4 x52 + 4 x102 + 4 x152 + 4 x202 + 4 x252 + 4 x302 + 4 x352
       + 4 x402 + 4 x452 - 21 x502 <= 0
 c153: 4 x3 + 4 x53 + 4 x103 + 4 x153 + 4 x203 + 4 x253 + 4 x303 + 4 x353
       + 4 x403 + 4 x453 - 18 x503 <= 0
 c154: 4 x4 + 4 x54 + 4 x104 + 4 x154 + 4 x204 + 4 x254 + 4 x304 + 4 x354
       + 4 x404 + 4 x454 - 21 x504 <= 0
 c155: 4 x5 + 4 x55 + 4 x105 + 4 x155 + 4 x205 + 4 x255 + 4 x305 + 4 x355
       + 4 x405 + 4 x455 - 18 x505 <= 0
 c156: 4 x6 + 4 x56 + 4 x106 + 4 x156 + 4 x206 + 4 x256 + 4 x306 + 4 x356
       + 4 x406 + 4 x456 - 22 x506 <= 0
 c157: 4 x7 + 4 x57 + 4 x107 + 4 x157 + 4 x207 + 4 x257 + 4 x307 + 4 x357
       + 4 x407 + 4 x457 - 19 x507 <= 0
 c158: 4 x8 + 4 x58 + 4 x108 + 4 x158 + 4 x208 + 4 x258 + 4 x308 + 4 x358
       + 4 x408 + 4 x458 - 20 x508 <= 0
 c159: 4 x9 + 4 x59 + 4 x109 + 4 x159 + 4 x209 + 4 x259 + 4 x309 + 4 x359
       + 4 x409 + 4 x459 - 20 x509 <= 0
 c160: 4 x10 + 4 x60 + 4 x110 + 4 x160 + 4 x210 + 4 x260 + 4 x310 + 4 x360
       + 4 x410 + 4 x460 - 21 x510 <= 0
 c161: 4 x11 + 4 x61 + 4 x111 + 4 x161 + 4 x211 + 4 x261 + 4 x311 + 4 x361
       + 4 x411 + 4 x461 - 21 x511 <= 0
 c162: 4 x12 + 4 x62 + 4 x112 + 4 x162 + 4 x212 + 4 x262 + 4 x312 + 4 x362
       + 4 x412 + 4 x462 - 22 x512 <= 0
 c163: 4 x13 + 4 x63 + 4 x113 + 4 x163 + 4 x213 + 4 x263 + 4 x313 + 4 x363
       + 4 x413 + 4 x463 - 20 x513 <= 0
 c164: 4 x14 + 4 x64 + 4 x114 + 4 x164 + 4 x214 + 4 x264 + 4 x314 + 4 x364
       + 4 x414 + 4 x464 - 20 x514 <= 0
 c165: 4 x15 + 4 x65 + 4 x115 + 4 x165 + 4 x215 + 4 x265 + 4 x315 + 4 x365
       + 4 x415 + 4 x465 - 18 x515 <= 0
 c166: 4 x16 + 4 x66 + 4 x116 + 4 x166 + 4 x216 + 4 x266 + 4 x316 + 4 x366
       + 4 x416 + 4 x466 - 21 x516 <= 0
 c167: 4 x17 + 4 x67 + 4 x117 + 4 x167 + 4 x217 + 4 x267 + 4 x317 + 4 x367
       + 4 x417 + 4 x467 - 22 x517 <= 0
 c168: 4 x18 + 4 x68 + 4 x118 + 4 x168 + 4 x218 + 4 x268 + 4 x318 + 4 x368
       + 4 x418 + 4 x468 - 19 x518 <= 0
 c169: 4 x19 + 4 x69 + 4 x119 + 4 x169 + 4 x219 + 4 x269 + 4 x319 + 4 x369
       + 4 x419 + 4 x469 - 20 x519 <= 0
 c170: 4 x20 + 4 x70 + 4 x120 + 4 x170 + 4 x220 + 4 x270 + 4 x320 + 4 x370
       + 4 x420 + 4 x470 - 19 x520 <= 0
 c171: 4 x21 + 4 x71 + 4 x121 + 4 x171 + 4 x221 + 4 x271 + 4 x321 + 4 x371
       + 4 x421 + 4 x471 - 21 x521 <= 0
 c172: 4 x22 + 4 x72 + 4 x122 + 4 x172 + 4 x222 + 4 x272 + 4 x322 + 4 x372
       + 4 x422 + 4 x472 - 21 x522 <= 0
 c173: 4 x23 + 4 x73 + 4 x123 + 4 x173 + 4 x223 + 4 x273 + 4 x323 + 4 x373
       + 4 x423 + 4 x473 - 22 x523 <= 0
 c174: 4 x24 + 4 x74 + 4 x124 + 4 x174 + 4 x224 + 4 x274 + 4 x324 + 4 x374
       + 4 x424 + 4 x474 - 19 x524 <= 0
 c175: 4 x25 + 4 x75 + 4 x125 + 4 x175 + 4 x225 + 4 x275 + 4 x325 + 4 x375
       + 4 x425 + 4 x475 - 22 x525 <= 0
 c176: 4 x26 + 4 x76 + 4 x126 + 4 x176 + 4 x226 + 4 x276 + 4 x326 + 4 x376
       + 4 x426 + 4 x476 - 20 x526 <= 0
 c177: 4 x27 + 4 x77 + 4 x127 + 4 x177 + 4 x227 + 4 x277 + 4 x327 + 4 x377
       + 4 x427 + 4 x477 - 21 x527 <= 0
 c178: 4 x28 + 4 x78 + 4 x128 + 4 x178 + 4 x228 + 4 x278 + 4 x328 + 4 x378
       + 4 x428 + 4 x478 - 22 x528 <= 0
 c179: 4 x29 + 4 x79 + 4 x129 + 4 x179 + 4 x229 + 4 x279 + 4 x329 + 4 x379
       + 4 x429 + 4 x479 - 20 x529 <= 0
 c180: 4 x30 + 4 x80 + 4 x130 + 4 x180 + 4 x230 + 4 x280 + 4 x330 + 4 x380
       + 4 x430 + 4 x480 - 22 x530 <= 0
 c181: 4 x31 + 4 x81 + 4 x131 + 4 x181 + 4 x231 + 4 x281 + 4 x331 + 4 x381
       + 4 x431 + 4 x481 - 19 x531 <= 0
 c182: 4 x32 + 4 x82 + 4 x132 + 4 x182 + 4 x232 + 4 x282 + 4 x332 + 4 x382
       + 4 x432 + 4 x482 - 19 x532 <= 0
 c183: 4 x33 + 4 x83 + 4 x133 + 4 x183 + 4 x233 + 4 x283 + 4 x333 + 4 x383
       + 4 x433 + 4 x483 - 20 x533 <= 0
 c184: 4 x34 + 4 x84 + 4 x134 + 4 x184 + 4 x234 + 4 x284 + 4 x334 + 4 x384
       + 4 x434 + 4 x484 - 22 x534 <= 0
 c185: 4 x35 + 4 x85 + 4 x135 + 4 x185 + 4 x235 + 4 x285 + 4 x335 + 4 x385
       + 4 x435 + 4 x485 - 21 x535 <= 0
 c186: 4 x36 + 4 x86 + 4 x136 + 4 x186 + 4 x236 + 4 x286 + 4 x336 + 4 x386
       + 4 x436 + 4 x486 - 18 x536 <= 0
 c187: 4 x37 + 4 x87 + 4 x137 + 4 x187 + 4 x237 + 4 x287 + 4 x337 + 4 x387
       + 4 x437 + 4 x487 - 20 x537 <= 0
 c188: 4 x38 + 4 x88 + 4 x138 + 4 x188 + 4 x238 + 4 x288 + 4 x338 + 4 x388
       + 4 x438 + 4 x488 - 18 x538 <= 0
 c189: 4 x39 + 4 x89 + 4 x139 + 4 x189 + 4 x239 + 4 x289 + 4 x339 + 4 x389
       + 4 x439 + 4 x489 - 22 x539 <= 0
 c190: 4 x40 + 4 x90 + 4 x140 + 4 x190 + 4 x240 + 4 x290 + 4 x340 + 4 x390
       + 4 x440 + 4 x490 - 22 x540 <= 0
 c191: 4 x41 + 4 x91 + 4 x141 + 4 x191 + 4 x241 + 4 x291 + 4 x341 + 4 x391
       + 4 x441 + 4 x491 - 18 x541 <= 0
 c192: 4 x42 + 4 x92 + 4 x142 + 4 x192 + 4 x242 + 4 x292 + 4 x342 + 4 x392
       + 4 x442 + 4 x492 - 19 x542 <= 0
 c193: 4 x43 + 4 x93 + 4 x143 + 4 x193 + 4 x243 + 4 x293 + 4 x343 + 4 x393
       + 4 x443 + 4 x493 - 20 x543 <= 0
 c194: 4 x44 + 4 x94 + 4 x144 + 4 x194 + 4 x244 + 4 x294 + 4 x344 + 4 x394
       + 4 x444 + 4 x494 - 20 x544 <= 0
 c195: 4 x45 + 4 x95 + 4 x145 + 4 x195 + 4 x245 + 4 x295 + 4 x345 + 4 x395
       + 4 x445 + 4 x495 - 18 x545 <= 0
 c196: 4 x46 + 4 x96 + 4 x146 + 4 x196 + 4 x246 + 4 x296 + 4 x346 + 4 x396
       + 4 x446 + 4 x496 - 21 x546 <= 0
 c197: 4 x47 + 4 x97 + 4 x147 + 4 x197 + 4 x247 + 4 x297 + 4 x347 + 4 x397
       + 4 x447 + 4 x497 - 19 x547 <= 0
 c198: 4 x48 + 4 x98 + 4 x148 + 4 x198 + 4 x248 + 4 x298 + 4 x348 + 4 x398
       + 4 x448 + 4 x498 - 18 x548 <= 0
 c199: 4 x49 + 4 x99 + 4 x149 + 4 x199 + 4 x249 + 4 x299 + 4 x349 + 4 x399
       + 4 x449 + 4 x499 - 22 x549 <= 0
 c200: 4 x50 + 4 x100 + 4 x150 + 4 x200 + 4 x250 + 4 x300 + 4 x350 + 4 x400
       + 4 x450 + 4 x500 - 12 x550 <= 0
Bounds
 0 <= x1 <= 1
 0 <= x2 <= 1
 0 <= x3 <= 1
 0 <= x4 <= 1
 0 <= x5 <= 1
 0 <= x6 <= 1
 0 <= x7 <= 1
 0 <= x8 <= 1
 0 <= x9 <= 1
 0 <= x10 <= 1
 0 <= x11 <= 1
 0 <= x12 <= 1
 0 <= x13 <= 1
 0 <= x14 <= 1
 0 <= x15 <= 1
 0 <= x16 <= 1
 0 <= x17 <= 1
 0 <= x18 <= 1
 0 <= x19 <= 1
 0 <= x20 <= 1
 0 <= x21 <= 1
 0 <= x22 <= 1
 0 <= x23 <= 1
 0 <= x24 <= 1
 0 <= x25 <= 1
 0 <= x26 <= 1
 0 <= x27 <= 1
 0 <= x28 <= 1
 0 <= x29 <= 1
 0 <= x30 <= 1
 0 <= x31 <= 1
 0 <= x32 <= 1
 0 <= x33 <= 1
 0 <= x34 <= 1
 0 <= x35 <= 1
 0 <= x36 <= 1
 0 <= x37 <= 1
 0 <= x38 <= 1
 0 <= x39 <= 1
 0 <= x40 <= 1
 0 <= x41 <= 1
 0 <= x42 <= 1
 0 <= x43 <= 1
 0 <= x44 <= 1
 0 <= x45 <= 1
 0 <= x46 <= 1
 0 <= x47 <= 1
 0 <= x48 <= 1
 0 <= x49 <= 1
 0 <= x50 <= 1
 0 <= x51 <= 1
 0 <= x52 <= 1
 0 <= x53 <= 1
 0 <= x54 <= 1
 0 <= x55 <= 1
 0 <= x56 <= 1
 0 <= x57 <= 1
 0 <= x58 <= 1
 0 <= x59 <= 1
 0 <= x60 <= 1
 0 <= x61 <= 1
 0 <= x62 <= 1
 0 <= x63 <= 1
 0 <= x64 <= 1
 0 <= x65 <= 1
 0 <= x66 <= 1
 0 <= x67 <= 1
 0 <= x68 <= 1
 0 <= x69 <= 1
 0 <= x70 <= 1
 0 <= x71 <= 1
 0 <= x72 <= 1
 0 <= x73 <= 1
 0 <= x74 <= 1
 0 <= x75 <= 1
 0 <= x76 <= 1
 0 <= x77 <= 1
 0 <= x78 <= 1
 0 <= x79 <= 1
 0 <= x80 <= 1
 0 <= x81 <= 1
 0 <= x82 <= 1
 0 <= x83 <= 1
 0 <= x84 <= 1
 0 <= x85 <= 1
 0 <= x86 <= 1
 0 <= x87 <= 1
 0 <= x88 <= 1
 0 <= x89 <= 1
 0 <= x90 <= 1
 0 <= x91 <= 1
 0 <= x92 <= 1
 0 <= x93 <= 1
 0 <= x94 <= 1
 0 <= x95 <= 1
 0 <= x96 <= 1
 0 <= x97 <= 1
 0 <= x98 <= 1
 0 <= x99 <= 1
 0 <= x100 <= 1
 0 <= x101 <= 1
 0 <= x102 <= 1
 0 <= x103 <= 1
 0 <= x104 <= 1
 0 <= x105 <= 1
 0 <= x106 <= 1
 0 <= x107 <= 1
 0 <= x108 <= 1
 0 <= x109 <= 1
 0 <= x110 <= 1
 0 <= x111 <= 1
 0 <= x112 <= 1
 0 <= x113 <= 1
 0 <= x114 <= 1
 0 <= x115 <= 1
 0 <= x116 <= 1
 0 <= x117 <= 1
 0 <= x118 <= 1
 0 <= x119 <= 1
 0 <= x120 <= 1
 0 <= x121 <= 1
 0 <= x122 <= 1
 0 <= x123 <= 1
 0 <= x124 <= 1
 0 <= x125 <= 1
 0 <= x126 <= 1
 0 <= x127 <= 1
 0 <= x128 <= 1
 0 <= x129 <= 1
 0 <= x130 <= 1
 0 <= x131 <= 1
 0 <= x132 <= 1
 0 <= x133 <= 1
 0 <= x134 <= 1
 0 <= x135 <= 1
 0 <= x136 <= 1
 0 <= x137 <= 1
 0 <= x138 <= 1
 0 <= x139 <= 1
 0 <= x140 <= 1
 0 <= x141 <= 1
 0 <= x142 <= 1
 0 <= x143 <= 1
 0 <= x144 <= 1
 0 <= x145 <= 1
 0 <= x146 <= 1
 0 <= x147 <= 1
 0 <= x148 <= 1
 0 <= x149 <= 1
 0 <= x150 <= 1
 0 <= x151 <= 1
 0 <= x152 <= 1
 0 <= x153 <= 1
 0 <= x154 <= 1
 0 <= x155 <= 1
 0 <= x156 <= 1
 0 <= x157 <= 1
 0 <= x158 <= 1
 0 <= x159 <= 1
 0 <= x160 <= 1
 0 <= x161 <= 1
 0 <= x162 <= 1
 0 <= x163 <= 1
 0 <= x164 <= 1
 0 <= x165 <= 1
 0 <= x166 <= 1
 0 <= x167 <= 1
 0 <= x168 <= 1
 0 <= x169 <= 1
 0 <= x170 <= 1
 0 <= x171 <= 1
 0 <= x172 <= 1
 0 <= x173 <= 1
 0 <= x174 <= 1
 0 <= x175 <= 1
 0 <= x176 <= 1
 0 <= x177 <= 1
 0 <= x178 <= 1
 0 <= x179 <= 1
 0 <= x180 <= 1
 0 <= x181 <= 1
 0 <= x182 <= 1
 0 <= x183 <= 1
 0 <= x184 <= 1
 0 <= x185 <= 1
 0 <= x186 <= 1
 0 <= x187 <= 1
 0 <= x188 <= 1
 0 <= x189 <= 1
 0 <= x190 <= 1
 0 <= x191 <= 1
 0 <= x192 <= 1
 0 <= x193 <= 1
 0 <= x194 <= 1
 0 <= x195 <= 1
 0 <= x196 <= 1
 0 <= x197 <= 1
 0 <= x198 <= 1
 0 <= x199 <= 1
 0 <= x200 <= 1
 0 <= x201 <= 1
 0 <= x202 <= 1
 0 <= x203 <= 1
 0 <= x204 <= 1
 0 <= x205 <= 1
 0 <= x206 <= 1
 0 <= x207 <= 1
 0 <= x208 <= 1
 0 <= x209 <= 1
 0 <= x210 <= 1
 0 <= x211 <= 1
 0 <= x212 <= 1
 0 <= x213 <= 1
 0 <= x214 <= 1
 0 <= x215 <= 1
 0 <= x216 <= 1
 0 <= x217 <= 1
 0 <= x218 <= 1
 0 <= x219 <= 1
 0 <= x220 <= 1
 0 <= x221 <= 1
 0 <= x222 <= 1
 0 <= x223 <= 1
 0 <= x224 <= 1
 0 <= x225 <= 1
 0 <= x226 <= 1
 0 <= x227 <= 1
 0 <= x228 <= 1
 0 <= x229 <= 1
 0 <= x230 <= 1
 0 <= x231 <= 1
 0 <= x232 <= 1
 0 <= x233 <= 1
 0 <= x234 <= 1
 0 <= x235 <= 1
 0 <= x236 <= 1
 0 <= x237 <= 1
 0 <= x238 <= 1
 0 <= x239 <= 1
 0 <= x240 <= 1
 0 <= x241 <= 1
 0 <= x242 <= 1
 0 <= x243 <= 1
 0 <= x244 <= 1
 0 <= x245 <= 1
 0 <= x246 <= 1
 0 <= x247 <= 1
 0 <= x248 <= 1
 0 <= x249 <= 1
 0 <= x250 <= 1
 0 <= x251 <= 1
 0 <= x252 <= 1
 0 <= x253 <= 1
 0 <= x254 <= 1
 0 <= x255 <= 1
 0 <= x256 <= 1
 0 <= x257 <= 1
 0 <= x258 <= 1
 0 <= x259 <= 1
 0 <= x260 <= 1
 0 <= x261 <= 1
 0 <= x262 <= 1
 0 <= x263 <= 1
 0 <= x264 <= 1
 0 <= x265 <= 1
 0 <= x266 <= 1
 0 <= x267 <= 1
 0 <= x268 <= 1
 0 <= x269 <= 1
 0 <= x270 <= 1
 0 <= x271 <= 1
 0 <= x272 <= 1
 0 <= x273 <= 1
 0 <= x274 <= 1
 0 <= x275 <= 1
 0 <= x276 <= 1
 0 <= x277 <= 1
 0 <= x278 <= 1
 0 <= x279 <= 1
 0 <= x280 <= 1
 0 <= x281 <= 1
 0 <= x282 <= 1
 0 <= x283 <= 1
 0 <= x284 <= 1
 0 <= x285 <= 1
 0 <= x286 <= 1
 0 <= x287 <= 1
 0 <= x288 <= 1
 0 <= x289 <= 1
 0 <= x290 <= 1
 0 <= x291 <= 1
 0 <= x292 <= 1
 0 <= x293 <= 1
 0 <= x294 <= 1
 0 <= x295 <= 1
 0 <= x296 <= 1
 0 <= x297 <= 1
 0 <= x298 <= 1
 0 <= x299 <= 1
 0 <= x300 <= 1
 0 <= x301 <= 1
 0 <= x302 <= 1
 0 <= x303 <= 1
 0 <= x304 <= 1
 0 <= x305 <= 1
 0 <= x306 <= 1
 0 <= x307 <= 1
 0 <= x308 <= 1
 0 <= x309 <= 1
 0 <= x310 <= 1
 0 <= x311 <= 1
 0 <= x312 <= 1
 0 <= x313 <= 1
 0 <= x314 <= 1
 0 <= x315 <= 1
 0 <= x316 <= 1
 0 <= x317 <= 1
 0 <= x318 <= 1
 0 <= x319 <= 1
 0 <= x320 <= 1
 0 <= x321 <= 1
 0 <= x322 <= 1
 0 <= x323 <= 1
 0 <= x324 <= 1
 0 <= x325 <= 1
 0 <= x326 <= 1
 0 <= x327 <= 1
 0 <= x328 <= 1
 0 <= x329 <= 1
 0 <= x330 <= 1
 0 <= x331 <= 1
 0 <= x332 <= 1
 0 <= x333 <= 1
 0 <= x334 <= 1
 0 <= x335 <= 1
 0 <= x336 <= 1
 0 <= x337 <= 1
 0 <= x338 <= 1
 0 <= x339 <= 1
 0 <= x340 <= 1
 0 <= x341 <= 1
 0 <= x342 <= 1
 0 <= x343 <= 1
 0 <= x344 <= 1
 0 <= x345 <= 1
 0 <= x346 <= 1
 0 <= x347 <= 1
 0 <= x348 <= 1
 0 <= x349 <= 1
 0 <= x350 <= 1
 0 <= x351 <= 1
 0 <= x352 <= 1
 0 <= x353 <= 1
 0 <= x354 <= 1
 0 <= x355 <= 1
 0 <= x356 <= 1
 0 <= x357 <= 1
 0 <= x358 <= 1
 0 <= x359 <= 1
 0 <= x360 <= 1
 0 <= x361 <= 1
 0 <= x362 <= 1
 0 <= x363 <= 1
 0 <= x364 <= 1
 0 <= x365 <= 1
 0 <= x366 <= 1
 0 <= x367 <= 1
 0 <= x368 <= 1
 0 <= x369 <= 1
 0 <= x370 <= 1
 0 <= x371 <= 1
 0 <= x372 <= 1
 0 <= x373 <= 1
 0 <= x374 <= 1
 0 <= x375 <= 1
 0 <= x376 <= 1
 0 <= x377 <= 1
 0 <= x378 <= 1
 0 <= x379 <= 1
 0 <= x380 <= 1
 0 <= x381 <= 1
 0 <= x382 <= 1
 0 <= x383 <= 1
 0 <= x384 <= 1
 0 <= x385 <= 1
 0 <= x386 <= 1
 0 <= x387 <= 1
 0 <= x388 <= 1
 0 <= x389 <= 1
 0 <= x390 <= 1
 0 <= x391 <= 1
 0 <= x392 <= 1
 0 <= x393 <= 1
 0 <= x394 <= 1
 0 <= x395 <= 1
 0 <= x396 <= 1
 0 <= x397 <= 1
 0 <= x398 <= 1
 0 <= x399 <= 1
 0 <= x400 <= 1
 0 <= x401 <= 1
 0 <= x402 <= 1
 0 <= x403 <= 1
 0 <= x404 <= 1
 0 <= x405 <= 1
 0 <= x406 <= 1
 0 <= x407 <= 1
 0 <= x408 <= 1
 0 <= x409 <= 1
 0 <= x410 <= 1
 0 <= x411 <= 1
 0 <= x412 <= 1
 0 <= x413 <= 1
 0 <= x414 <= 1
 0 <= x415 <= 1
 0 <= x416 <= 1
 0 <= x417 <= 1
 0 <= x418 <= 1
 0 <= x419 <= 1
 0 <= x420 <= 1
 0 <= x421 <= 1
 0 <= x422 <= 1
 0 <= x423 <= 1
 0 <= x424 <= 1
 0 <= x425 <= 1
 0 <= x426 <= 1
 0 <= x427 <= 1
 0 <= x428 <= 1
 0 <= x429 <= 1
 0 <= x430 <= 1
 0 <= x431 <= 1
 0 <= x432 <= 1
 0 <= x433 <= 1
 0 <= x434 <= 1
 0 <= x435 <= 1
 0 <= x436 <= 1
 0 <= x437 <= 1
 0 <= x438 <= 1
 0 <= x439 <= 1
 0 <= x440 <= 1
 0 <= x441 <= 1
 0 <= x442 <= 1
 0 <= x443 <= 1
 0 <= x444 <= 1
 0 <= x445 <= 1
 0 <= x446 <= 1
 0 <= x447 <= 1
 0 <= x448 <= 1
 0 <= x449 <= 1
 0 <= x450 <= 1
 0 <= x451 <= 1
 0 <= x452 <= 1
 0 <= x453 <= 1
 0 <= x454 <= 1
 0 <= x455 <= 1
 0 <= x456 <= 1
 0 <= x457 <= 1
 0 <= x458 <= 1
 0 <= x459 <= 1
 0 <= x460 <= 1
 0 <= x461 <= 1
 0 <= x462 <= 1
 0 <= x463 <= 1
 0 <= x464 <= 1
 0 <= x465 <= 1
 0 <= x466 <= 1
 0 <= x467 <= 1
 0 <= x468 <= 1
 0 <= x469 <= 1
 0 <= x470 <= 1
 0 <= x471 <= 1
 0 <= x472 <= 1
 0 <= x473 <= 1
 0 <= x474 <= 1
 0 <= x475 <= 1
 0 <= x476 <= 1
 0 <= x477 <= 1
 0 <= x478 <= 1
 0 <= x479 <= 1
 0 <= x480 <= 1
 0 <= x481 <= 1
 0 <= x482 <= 1
 0 <= x483 <= 1
 0 <= x484 <= 1
 0 <= x485 <= 1
 0 <= x486 <= 1
 0 <= x487 <= 1
 0 <= x488 <= 1
 0 <= x489 <= 1
 0 <= x490 <= 1
 0 <= x491 <= 1
 0 <= x492 <= 1
 0 <= x493 <= 1
 0 <= x494 <= 1
 0 <= x495 <= 1
 0 <= x496 <= 1
 0 <= x497 <= 1
 0 <= x498 <= 1
 0 <= x499 <= 1
 0 <= x500 <= 1
 0 <= x501 <= 1
 0 <= x502 <= 1
 0 <= x503 <= 1
 0 <= x504 <= 1
 0 <= x505 <= 1
 0 <= x506 <= 1
 0 <= x507 <= 1
 0 <= x508 <= 1
 0 <= x509 <= 1
 0 <= x510 <= 1
 0 <= x511 <= 1
 0 <= x512 <= 1
 0 <= x513 <= 1
 0 <= x514 <= 1
 0 <= x515 <= 1
 0 <= x516 <= 1
 0 <= x517 <= 1
 0 <= x518 <= 1
 0 <= x519 <= 1
 0 <= x520 <= 1
 0 <= x521 <= 1
 0 <= x522 <= 1
 0 <= x523 <= 1
 0 <= x524 <= 1
 0 <= x525 <= 1
 0 <= x526 <= 1
 0 <= x527 <= 1
 0 <= x528 <= 1
 0 <= x529 <= 1
 0 <= x530 <= 1
 0 <= x531 <= 1
 0 <= x532 <= 1
 0 <= x533 <= 1
 0 <= x534 <= 1
 0 <= x535 <= 1
 0 <= x536 <= 1
 0 <= x537 <= 1
 0 <= x538 <= 1
 0 <= x539 <= 1
 0 <= x540 <= 1
 0 <= x541 <= 1
 0 <= x542 <= 1
 0 <= x543 <= 1
 0 <= x544 <= 1
 0 <= x545 <= 1
 0 <= x546 <= 1
 0 <= x547 <= 1
 0 <= x548 <= 1
 0 <= x549 <= 1
 0 <= x550 <= 1
Binaries
 x501  x502  x503  x504  x505  x506  x507  x508  x509  x510  x511  x512  x513 
 x514  x515  x516  x517  x518  x519  x520  x521  x522  x523  x524  x525  x526 
 x527  x528  x529  x530  x531  x532  x533  x534  x535  x536  x537  x538  x539 
 x540  x541  x542  x543  x544  x545  x546  x547  x548  x549  x550 
End
